led_fsm_unrolled.smt2
; SMT-LIBv2 description generated by Yosys 0.53 (git sha1 53c22ab7c0ced80861c7536c5dae682c30fb5834, clang++ 17.0.0 -fPIC -O3)
; yosys-smt2-stdt
; yosys-smt2-module led_fsm
(declare-datatype |led_fsm_s| ((|led_fsm_mk|
  (|led_fsm_is| Bool)
  (|LED0| (_ BitVec 1)) ; \LED0
  (|LEDs_hi| (_ BitVec 4)) ; \LEDs_hi
  (|clock| Bool) ; \clock
  (|led_state| (_ BitVec 3)) ; \led_state
  (|on| (_ BitVec 1)) ; \on
  (|reset| Bool) ; \reset
  (|up| (_ BitVec 1)) ; \up
)))
; yosys-smt2-witness {"offset": 0, "path": ["\\LED0"], "smtname": 0, "smtoffset": 0, "type": "reg", "width": 1}
; yosys-smt2-output LED0 1
; yosys-smt2-register LED0 1
; yosys-smt2-wire LED0 1
(define-fun |led_fsm_n LED0| ((state |led_fsm_s|)) Bool (= ((_ extract 0 0) (|LED0| state)) #b1))
; yosys-smt2-witness {"offset": 0, "path": ["\\LEDs_hi"], "smtname": 1, "smtoffset": 0, "type": "reg", "width": 4}
; yosys-smt2-output LEDs_hi 4
; yosys-smt2-register LEDs_hi 4
; yosys-smt2-wire LEDs_hi 4
(define-fun |led_fsm_n LEDs_hi| ((state |led_fsm_s|)) (_ BitVec 4) (|LEDs_hi| state))
; yosys-smt2-input clock 1
; yosys-smt2-wire clock 1
; yosys-smt2-clock clock posedge
; yosys-smt2-witness {"offset": 0, "path": ["\\clock"], "smtname": "clock", "smtoffset": 0, "type": "posedge", "width": 1}
; yosys-smt2-witness {"offset": 0, "path": ["\\clock"], "smtname": "clock", "smtoffset": 0, "type": "input", "width": 1}
(define-fun |led_fsm_n clock| ((state |led_fsm_s|)) Bool (|clock| state))
; yosys-smt2-witness {"offset": 0, "path": ["\\led_state"], "smtname": 3, "smtoffset": 0, "type": "reg", "width": 3}
; yosys-smt2-register led_state 3
; yosys-smt2-wire led_state 3
(define-fun |led_fsm_n led_state| ((state |led_fsm_s|)) (_ BitVec 3) (|led_state| state))
; yosys-smt2-witness {"offset": 0, "path": ["\\on"], "smtname": 4, "smtoffset": 0, "type": "reg", "width": 1}
; yosys-smt2-register on 1
; yosys-smt2-wire on 1
(define-fun |led_fsm_n on| ((state |led_fsm_s|)) Bool (= ((_ extract 0 0) (|on| state)) #b1))
; yosys-smt2-input reset 1
; yosys-smt2-wire reset 1
; yosys-smt2-witness {"offset": 0, "path": ["\\reset"], "smtname": "reset", "smtoffset": 0, "type": "input", "width": 1}
(define-fun |led_fsm_n reset| ((state |led_fsm_s|)) Bool (|reset| state))
; yosys-smt2-witness {"offset": 0, "path": ["\\up"], "smtname": 6, "smtoffset": 0, "type": "reg", "width": 1}
; yosys-smt2-register up 1
; yosys-smt2-wire up 1
(define-fun |led_fsm_n up| ((state |led_fsm_s|)) Bool (= ((_ extract 0 0) (|up| state)) #b1))
(define-fun |led_fsm#7| ((state |led_fsm_s|)) (_ BitVec 1) (ite (= ((_ extract 0 0) (|up| state)) #b1) #b1 #b0)) ; $procmux$95_Y
(define-fun |led_fsm#8| ((state |led_fsm_s|)) (_ BitVec 1) (ite (= ((_ extract 0 0) (|up| state)) #b1) #b1 #b0)) ; $procmux$103_Y
(define-fun |led_fsm#9| ((state |led_fsm_s|)) Bool (= (|led_state| state) #b101)) ; $procmux$98_CMP
(define-fun |led_fsm#10| ((state |led_fsm_s|)) Bool (= (|led_state| state) #b100)) ; $procmux$101_CMP
(define-fun |led_fsm#11| ((state |led_fsm_s|)) Bool (= (|led_state| state) #b011)) ; $procmux$105_CMP
(define-fun |led_fsm#12| ((state |led_fsm_s|)) (_ BitVec 1) (ite (|led_fsm#11| state) (|led_fsm#8| state) (ite (|led_fsm#10| state) #b0 (ite (|led_fsm#9| state) (|led_fsm#7| state) #b1)))) ; $procmux$97_Y
(define-fun |led_fsm#13| ((state |led_fsm_s|)) (_ BitVec 1) (ite (= ((_ extract 0 0) (|on| state)) #b1) (|up| state) (|led_fsm#12| state))) ; $procmux$109_Y
(define-fun |led_fsm#14| ((state |led_fsm_s|)) (_ BitVec 1) (ite (|reset| state) #b0 (|led_fsm#13| state))) ; $0\up[0:0]
(define-fun |led_fsm#15| ((state |led_fsm_s|)) (_ BitVec 1) (ite (= ((_ extract 0 0) (|on| state)) #b1) #b0 #b1)) ; $procmux$8_Y
(define-fun |led_fsm#16| ((state |led_fsm_s|)) (_ BitVec 1) (ite (|reset| state) #b1 (|led_fsm#15| state))) ; $0\on[0:0]
(define-fun |led_fsm#17| ((state |led_fsm_s|)) (_ BitVec 3) (ite (= ((_ extract 0 0) (|up| state)) #b1) #b010 #b000)) ; $procmux$65_Y
(define-fun |led_fsm#18| ((state |led_fsm_s|)) (_ BitVec 3) (ite (= ((_ extract 0 0) (|up| state)) #b1) #b000 #b100)) ; $procmux$69_Y
(define-fun |led_fsm#19| ((state |led_fsm_s|)) (_ BitVec 3) (ite (= ((_ extract 0 0) (|up| state)) #b1) #b101 #b011)) ; $procmux$74_Y
(define-fun |led_fsm#20| ((state |led_fsm_s|)) (_ BitVec 3) (ite (= ((_ extract 0 0) (|up| state)) #b1) #b100 #b010)) ; $procmux$78_Y
(define-fun |led_fsm#21| ((state |led_fsm_s|)) (_ BitVec 3) (ite (= ((_ extract 0 0) (|up| state)) #b1) #b011 #b001)) ; $procmux$82_Y
(define-fun |led_fsm#22| ((state |led_fsm_s|)) Bool (= (|led_state| state) #b101)) ; $procmux$72_CMP
(define-fun |led_fsm#23| ((state |led_fsm_s|)) Bool (= (|led_state| state) #b100)) ; $procmux$76_CMP
(define-fun |led_fsm#24| ((state |led_fsm_s|)) Bool (= (|led_state| state) #b011)) ; $procmux$80_CMP
(define-fun |led_fsm#25| ((state |led_fsm_s|)) Bool (= (|led_state| state) #b010)) ; $procmux$84_CMP
(define-fun |led_fsm#26| ((state |led_fsm_s|)) (_ BitVec 3) (ite (|led_fsm#25| state) (|led_fsm#21| state) (ite (|led_fsm#24| state) (|led_fsm#20| state) (ite (|led_fsm#23| state) (|led_fsm#19| state) (ite (|led_fsm#22| state) (|led_fsm#18| state) (|led_fsm#17| state)))))) ; $procmux$71_Y
(define-fun |led_fsm#27| ((state |led_fsm_s|)) (_ BitVec 3) (ite (= ((_ extract 0 0) (|on| state)) #b1) (|led_state| state) (|led_fsm#26| state))) ; $procmux$86_Y
(define-fun |led_fsm#28| ((state |led_fsm_s|)) (_ BitVec 3) (ite (|reset| state) #b010 (|led_fsm#27| state))) ; $0\led_state[2:0]
(define-fun |led_fsm#29| ((state |led_fsm_s|)) (_ BitVec 4) (ite (= ((_ extract 0 0) (|up| state)) #b1) #b0011 #b0000)) ; $procmux$14_Y
(define-fun |led_fsm#30| ((state |led_fsm_s|)) (_ BitVec 4) (ite (= ((_ extract 0 0) (|up| state)) #b1) #b0000 #b1111)) ; $procmux$18_Y
(define-fun |led_fsm#31| ((state |led_fsm_s|)) (_ BitVec 4) (ite (= ((_ extract 0 0) (|up| state)) #b1) #b1111 #b0111)) ; $procmux$23_Y
(define-fun |led_fsm#32| ((state |led_fsm_s|)) (_ BitVec 4) (ite (= ((_ extract 0 0) (|up| state)) #b1) #b0111 #b0011)) ; $procmux$27_Y
(define-fun |led_fsm#33| ((state |led_fsm_s|)) (_ BitVec 4) (ite (= ((_ extract 0 0) (|up| state)) #b1) #b0011 #b0000)) ; $procmux$31_Y
(define-fun |led_fsm#34| ((state |led_fsm_s|)) Bool (= (|led_state| state) #b101)) ; $procmux$21_CMP
(define-fun |led_fsm#35| ((state |led_fsm_s|)) Bool (= (|led_state| state) #b100)) ; $procmux$25_CMP
(define-fun |led_fsm#36| ((state |led_fsm_s|)) Bool (= (|led_state| state) #b011)) ; $procmux$29_CMP
(define-fun |led_fsm#37| ((state |led_fsm_s|)) Bool (= (|led_state| state) #b010)) ; $procmux$33_CMP
(define-fun |led_fsm#38| ((state |led_fsm_s|)) (_ BitVec 4) (ite (|led_fsm#37| state) (|led_fsm#33| state) (ite (|led_fsm#36| state) (|led_fsm#32| state) (ite (|led_fsm#35| state) (|led_fsm#31| state) (ite (|led_fsm#34| state) (|led_fsm#30| state) (|led_fsm#29| state)))))) ; $procmux$20_Y
(define-fun |led_fsm#39| ((state |led_fsm_s|)) (_ BitVec 4) (ite (= ((_ extract 0 0) (|on| state)) #b1) #b0000 (|led_fsm#38| state))) ; $procmux$35_Y
(define-fun |led_fsm#40| ((state |led_fsm_s|)) (_ BitVec 4) (ite (|reset| state) #b0101 (|led_fsm#39| state))) ; $0\LEDs_hi_r[3:0]
(define-fun |led_fsm#41| ((state |led_fsm_s|)) (_ BitVec 1) (ite (= ((_ extract 0 0) (|up| state)) #b1) #b1 #b0)) ; $procmux$41_Y
(define-fun |led_fsm#42| ((state |led_fsm_s|)) (_ BitVec 1) (ite (= ((_ extract 0 0) (|up| state)) #b1) #b0 #b1)) ; $procmux$45_Y
(define-fun |led_fsm#43| ((state |led_fsm_s|)) Bool (= (|led_state| state) #b101)) ; $procmux$48_CMP
(define-fun |led_fsm#44| ((state |led_fsm_s|)) Bool (= (|led_state| state) #b100)) ; $procmux$51_CMP
(define-fun |led_fsm#45| ((state |led_fsm_s|)) Bool (= (|led_state| state) #b011)) ; $procmux$54_CMP
(define-fun |led_fsm#46| ((state |led_fsm_s|)) Bool (= (|led_state| state) #b010)) ; $procmux$57_CMP
(define-fun |led_fsm#47| ((state |led_fsm_s|)) (_ BitVec 1) (ite (|led_fsm#46| state) #b1 (ite (|led_fsm#45| state) #b1 (ite (|led_fsm#44| state) #b1 (ite (|led_fsm#43| state) (|led_fsm#42| state) (|led_fsm#41| state)))))) ; $procmux$47_Y
(define-fun |led_fsm#48| ((state |led_fsm_s|)) (_ BitVec 1) (ite (= ((_ extract 0 0) (|on| state)) #b1) #b0 (|led_fsm#47| state))) ; $procmux$59_Y
(define-fun |led_fsm#49| ((state |led_fsm_s|)) (_ BitVec 1) (ite (|reset| state) #b1 (|led_fsm#48| state))) ; $0\LED0_r[0:0]
(define-fun |led_fsm_a| ((state |led_fsm_s|)) Bool true)
(define-fun |led_fsm_u| ((state |led_fsm_s|)) Bool true)
(define-fun |led_fsm_i| ((state |led_fsm_s|)) Bool (and
  (= (= ((_ extract 0 0) (|LED0| state)) #b1) true) ; LED0
  (= (|LEDs_hi| state) #b0101) ; LEDs_hi
  (= (|led_state| state) #b010) ; led_state
  (= (= ((_ extract 0 0) (|on| state)) #b1) true) ; on
  (= (= ((_ extract 0 0) (|up| state)) #b1) false) ; up
))
(define-fun |led_fsm_h| ((state |led_fsm_s|)) Bool true)
(define-fun |led_fsm_t| ((state |led_fsm_s|) (next_state |led_fsm_s|)) Bool (and
  (= (|led_fsm#14| state) (|up| next_state)) ; $procdff$116 \up
  (= (|led_fsm#16| state) (|on| next_state)) ; $procdff$117 \on
  (= (|led_fsm#28| state) (|led_state| next_state)) ; $procdff$118 \led_state
  (= (|led_fsm#40| state) (|LEDs_hi| next_state)) ; $procdff$115 \LEDs_hi
  (= (|led_fsm#49| state) (|LED0| next_state)) ; $procdff$114 \LED0
)) ; end of module led_fsm
; yosys-smt2-topmod led_fsm
; end of yosys output

; Probes for variable LED0
(declare-const |probe_LED0_q_0| Bool)
(declare-const |probe_LED0_q_1| Bool)
(declare-const |probe_LED0_q_2| Bool)
(declare-const |probe_LED0_q_3| Bool)
(declare-const |probe_LED0_q_4| Bool)
(declare-const |probe_LED0_q_5| Bool)
(declare-const |probe_LED0_q_6| Bool)

; Unrolled states
(declare-const |s_q_0| |led_fsm_s|)
(declare-const |s_q_1| |led_fsm_s|)
(declare-const |s_q_2| |led_fsm_s|)
(declare-const |s_q_3| |led_fsm_s|)
(declare-const |s_q_4| |led_fsm_s|)
(declare-const |s_q_5| |led_fsm_s|)
(declare-const |s_q_6| |led_fsm_s|)

; Initial and Next-state constraints
(assert (and (|led_fsm_i| |s_q_0|) (|led_fsm_t| s_q_0 s_q_1) (|led_fsm_t| s_q_1 s_q_2) (|led_fsm_t| s_q_2 s_q_3) (|led_fsm_t| s_q_3 s_q_4) (|led_fsm_t| s_q_4 s_q_5) (|led_fsm_t| s_q_5 s_q_6) ))
; End of unrolling constraints
